10J3M/DAT/10J3MUTA-2.dat
10 3
1.5648 2.4486
2.3974 5.7475
47.3548 2242.4771
45.2173 2044.6042
37.2315 1386.1846
4.8881 23.8935
34.577 1195.5689
20.4272 417.2705
4.2162 17.7763
10.0886 101.7798
2912.4974