10J3M/SOL/10J3MUTA-2.sol
solution status: optimal solution found
objective value:                     69.3209666666667
x#1#1                                               1 	(obj:0)
x#2#1                                               1 	(obj:0)
x#3#3                                               1 	(obj:0)
x#4#2                               0.802565034891074 	(obj:0)
x#4#3                               0.197434965108926 	(obj:0)
x#5#1                               0.112817299477955 	(obj:0)
x#5#2                               0.887182700522045 	(obj:0)
x#6#1                                               1 	(obj:0)
x#7#1                                               1 	(obj:0)
x#8#1                               0.361699566321042 	(obj:0)
x#8#3                               0.638300433678958 	(obj:0)
x#9#1                                               1 	(obj:0)
x#10#1                                              1 	(obj:0)
z                                    69.3209666666667 	(obj:1)
